CPXPARAM_TimeLimit                               3600
CPXPARAM_Read_DataCheck                          1
CPXPARAM_MIP_Limits_Solutions                    1
Tried aggregator 1 time.
MIP Presolve eliminated 1434 rows and 0 columns.
MIP Presolve modified 2625 coefficients.
Reduced MIP has 70101 rows, 22276 columns, and 251451 nonzeros.
Reduced MIP has 1575 binaries, 0 generals, 0 SOSs, and 0 indicators.
Presolve time = 0.06 sec. (89.30 ticks)
Found incumbent of value 8870.000000 after 0.11 sec. (149.49 ticks)

Root node processing (before b&c):
  Real time             =    0.11 sec. (150.58 ticks)
Parallel b&c, 8 threads:
  Real time             =    0.00 sec. (0.00 ticks)
  Sync time (average)   =    0.00 sec.
  Wait time (average)   =    0.00 sec.
                          ------------
Total (root+branch&cut) =    0.11 sec. (150.58 ticks)
